\ Model Master problem
\ LP format - for model browsing. Use MPS format to capture full model detail.
Minimize
  0 X_6_6 + 0 X_5_8 + 0 X_6_8 + 0 X_5_10 + 0 X_6_10 + 0 X_5_14 + 0 X_6_14
   + 0 X_5_16 + 0 X_6_16 + 0 X_5_18 + 0 X_6_18 + 0 X_5_22 + 0 X_6_22
   + 0 X_5_24 + 0 X_6_24 + 0 X_5_28 + 0 X_6_28 + 0 X_5_30 + 0 X_6_30
   + theta + 0 min_var1_0_3
Subject To
 2b[0]: X_0_6 + X_0_8 + X_0_10 + X_0_14 + X_0_16 + X_0_18 + X_0_22 + X_0_24
   + X_0_28 + X_0_30 = 1
 2b[1]: X_1_6 + X_1_8 + X_1_10 + X_1_14 + X_1_16 + X_1_18 + X_1_22 + X_1_24
   + X_1_28 + X_1_30 = 1
 2b[2]: X_2_6 + X_2_8 + X_2_10 + X_2_14 + X_2_16 + X_2_18 + X_2_22 + X_2_24
   + X_2_28 + X_2_30 = 1
 2c[3]: X_3_6 + X_3_8 + X_3_14 + X_3_16 + X_3_22 + X_3_28 = 1
 2c[4]: X_4_6 + X_4_8 + X_4_14 + X_4_16 + X_4_22 + X_4_28 = 1
 2d[7]: X_5_6 = 1
 2e[3,0,7]: X_3_6 + X_0_8 <= 1
 2e[3,0,9]: X_3_8 + X_0_10 <= 1
 2e[3,0,15]: X_3_14 + X_0_16 <= 1
 2e[3,0,17]: X_3_16 + X_0_18 <= 1
 2e[3,0,23]: X_3_22 + X_0_24 <= 1
 2e[3,0,29]: X_3_28 + X_0_30 <= 1
 2e[3,1,7]: X_3_6 + X_1_8 <= 1
 2e[3,1,9]: X_3_8 + X_1_10 <= 1
 2e[3,1,15]: X_3_14 + X_1_16 <= 1
 2e[3,1,17]: X_3_16 + X_1_18 <= 1
 2e[3,1,23]: X_3_22 + X_1_24 <= 1
 2e[3,1,29]: X_3_28 + X_1_30 <= 1
 2e[3,2,7]: X_3_6 + X_2_8 <= 1
 2e[3,2,9]: X_3_8 + X_2_10 <= 1
 2e[3,2,15]: X_3_14 + X_2_16 <= 1
 2e[3,2,17]: X_3_16 + X_2_18 <= 1
 2e[3,2,23]: X_3_22 + X_2_24 <= 1
 2e[3,2,29]: X_3_28 + X_2_30 <= 1
 2e[3,3,7]: X_3_6 + X_3_8 <= 1
 2e[3,3,9]: X_3_8 + X_3_10 <= 1
 2e[3,3,15]: X_3_14 + X_3_16 <= 1
 2e[3,3,17]: X_3_16 + X_3_18 <= 1
 2e[3,3,23]: X_3_22 + X_3_24 <= 1
 2e[3,3,29]: X_3_28 + X_3_30 <= 1
 2e[3,4,7]: X_3_6 + X_4_8 <= 1
 2e[3,4,9]: X_3_8 + X_4_10 <= 1
 2e[3,4,15]: X_3_14 + X_4_16 <= 1
 2e[3,4,17]: X_3_16 + X_4_18 <= 1
 2e[3,4,23]: X_3_22 + X_4_24 <= 1
 2e[3,4,29]: X_3_28 + X_4_30 <= 1
 2e[4,0,7]: X_4_6 + X_0_8 <= 1
 2e[4,0,9]: X_4_8 + X_0_10 <= 1
 2e[4,0,15]: X_4_14 + X_0_16 <= 1
 2e[4,0,17]: X_4_16 + X_0_18 <= 1
 2e[4,0,23]: X_4_22 + X_0_24 <= 1
 2e[4,0,29]: X_4_28 + X_0_30 <= 1
 2e[4,1,7]: X_4_6 + X_1_8 <= 1
 2e[4,1,9]: X_4_8 + X_1_10 <= 1
 2e[4,1,15]: X_4_14 + X_1_16 <= 1
 2e[4,1,17]: X_4_16 + X_1_18 <= 1
 2e[4,1,23]: X_4_22 + X_1_24 <= 1
 2e[4,1,29]: X_4_28 + X_1_30 <= 1
 2e[4,2,7]: X_4_6 + X_2_8 <= 1
 2e[4,2,9]: X_4_8 + X_2_10 <= 1
 2e[4,2,15]: X_4_14 + X_2_16 <= 1
 2e[4,2,17]: X_4_16 + X_2_18 <= 1
 2e[4,2,23]: X_4_22 + X_2_24 <= 1
 2e[4,2,29]: X_4_28 + X_2_30 <= 1
 2e[4,3,7]: X_4_6 + X_3_8 <= 1
 2e[4,3,9]: X_4_8 + X_3_10 <= 1
 2e[4,3,15]: X_4_14 + X_3_16 <= 1
 2e[4,3,17]: X_4_16 + X_3_18 <= 1
 2e[4,3,23]: X_4_22 + X_3_24 <= 1
 2e[4,3,29]: X_4_28 + X_3_30 <= 1
 2e[4,4,7]: X_4_6 + X_4_8 <= 1
 2e[4,4,9]: X_4_8 + X_4_10 <= 1
 2e[4,4,15]: X_4_14 + X_4_16 <= 1
 2e[4,4,17]: X_4_16 + X_4_18 <= 1
 2e[4,4,23]: X_4_22 + X_4_24 <= 1
 2e[4,4,29]: X_4_28 + X_4_30 <= 1
 2f[7]: X_0_6 + X_1_6 + X_2_6 + X_3_6 + X_4_6 <= 2
 2f[9]: X_0_8 + X_1_8 + X_2_8 + X_3_8 + X_4_8 <= 2
 2f[11]: X_0_10 + X_1_10 + X_2_10 + X_3_10 + X_4_10 <= 2
 2f[15]: X_0_14 + X_1_14 + X_2_14 + X_3_14 + X_4_14 <= 2
 2f[17]: X_0_16 + X_1_16 + X_2_16 + X_3_16 + X_4_16 <= 2
 2f[19]: X_0_18 + X_1_18 + X_2_18 + X_3_18 + X_4_18 <= 2
 2f[23]: X_0_22 + X_1_22 + X_2_22 + X_3_22 + X_4_22 <= 2
 2f[25]: X_0_24 + X_1_24 + X_2_24 + X_3_24 + X_4_24 <= 2
 2f[29]: X_0_28 + X_1_28 + X_2_28 + X_3_28 + X_4_28 <= 2
 2f[31]: X_0_30 + X_1_30 + X_2_30 + X_3_30 + X_4_30 <= 2
 2g[7,0,3]: X_0_6 + X_3_6 <= 1
 2g[7,0,4]: X_0_6 + X_4_6 <= 1
 2g[7,1,3]: X_1_6 + X_3_6 <= 1
 2g[7,1,4]: X_1_6 + X_4_6 <= 1
 2g[7,2,3]: X_2_6 + X_3_6 <= 1
 2g[7,2,4]: X_2_6 + X_4_6 <= 1
 2g[9,0,3]: X_0_8 + X_3_8 <= 1
 2g[9,0,4]: X_0_8 + X_4_8 <= 1
 2g[9,1,3]: X_1_8 + X_3_8 <= 1
 2g[9,1,4]: X_1_8 + X_4_8 <= 1
 2g[9,2,3]: X_2_8 + X_3_8 <= 1
 2g[9,2,4]: X_2_8 + X_4_8 <= 1
 2g[11,0,3]: X_0_10 + X_3_10 <= 1
 2g[11,0,4]: X_0_10 + X_4_10 <= 1
 2g[11,1,3]: X_1_10 + X_3_10 <= 1
 2g[11,1,4]: X_1_10 + X_4_10 <= 1
 2g[11,2,3]: X_2_10 + X_3_10 <= 1
 2g[11,2,4]: X_2_10 + X_4_10 <= 1
 2g[15,0,3]: X_0_14 + X_3_14 <= 1
 2g[15,0,4]: X_0_14 + X_4_14 <= 1
 2g[15,1,3]: X_1_14 + X_3_14 <= 1
 2g[15,1,4]: X_1_14 + X_4_14 <= 1
 2g[15,2,3]: X_2_14 + X_3_14 <= 1
 2g[15,2,4]: X_2_14 + X_4_14 <= 1
 2g[17,0,3]: X_0_16 + X_3_16 <= 1
 2g[17,0,4]: X_0_16 + X_4_16 <= 1
 2g[17,1,3]: X_1_16 + X_3_16 <= 1
 2g[17,1,4]: X_1_16 + X_4_16 <= 1
 2g[17,2,3]: X_2_16 + X_3_16 <= 1
 2g[17,2,4]: X_2_16 + X_4_16 <= 1
 2g[19,0,3]: X_0_18 + X_3_18 <= 1
 2g[19,0,4]: X_0_18 + X_4_18 <= 1
 2g[19,1,3]: X_1_18 + X_3_18 <= 1
 2g[19,1,4]: X_1_18 + X_4_18 <= 1
 2g[19,2,3]: X_2_18 + X_3_18 <= 1
 2g[19,2,4]: X_2_18 + X_4_18 <= 1
 2g[23,0,3]: X_0_22 + X_3_22 <= 1
 2g[23,0,4]: X_0_22 + X_4_22 <= 1
 2g[23,1,3]: X_1_22 + X_3_22 <= 1
 2g[23,1,4]: X_1_22 + X_4_22 <= 1
 2g[23,2,3]: X_2_22 + X_3_22 <= 1
 2g[23,2,4]: X_2_22 + X_4_22 <= 1
 2g[25,0,3]: X_0_24 + X_3_24 <= 1
 2g[25,0,4]: X_0_24 + X_4_24 <= 1
 2g[25,1,3]: X_1_24 + X_3_24 <= 1
 2g[25,1,4]: X_1_24 + X_4_24 <= 1
 2g[25,2,3]: X_2_24 + X_3_24 <= 1
 2g[25,2,4]: X_2_24 + X_4_24 <= 1
 2g[29,0,3]: X_0_28 + X_3_28 <= 1
 2g[29,0,4]: X_0_28 + X_4_28 <= 1
 2g[29,1,3]: X_1_28 + X_3_28 <= 1
 2g[29,1,4]: X_1_28 + X_4_28 <= 1
 2g[29,2,3]: X_2_28 + X_3_28 <= 1
 2g[29,2,4]: X_2_28 + X_4_28 <= 1
 2g[31,0,3]: X_0_30 + X_3_30 <= 1
 2g[31,0,4]: X_0_30 + X_4_30 <= 1
 2g[31,1,3]: X_1_30 + X_3_30 <= 1
 2g[31,1,4]: X_1_30 + X_4_30 <= 1
 2g[31,2,3]: X_2_30 + X_3_30 <= 1
 2g[31,2,4]: X_2_30 + X_4_30 <= 1
 2h[7]: 12 X_0_6 + 2 X_1_6 + 12 X_2_6 + 12 X_3_6 + 12 X_4_6 <= 12
 2h[9]: 12 X_0_8 + 2 X_1_8 + 12 X_2_8 + 12 X_3_8 + 12 X_4_8 <= 12
 2h[11]: 12 X_0_10 + 2 X_1_10 + 12 X_2_10 + 12 X_3_10 + 12 X_4_10 <= 12
 2h[15]: 12 X_0_14 + 2 X_1_14 + 12 X_2_14 + 12 X_3_14 + 12 X_4_14 <= 12
 2h[17]: 12 X_0_16 + 2 X_1_16 + 12 X_2_16 + 12 X_3_16 + 12 X_4_16 <= 12
 2h[19]: 12 X_0_18 + 2 X_1_18 + 12 X_2_18 + 12 X_3_18 + 12 X_4_18 <= 12
 2h[23]: 12 X_0_22 + 2 X_1_22 + 12 X_2_22 + 12 X_3_22 + 12 X_4_22 <= 12
 2h[25]: 12 X_0_24 + 2 X_1_24 + 12 X_2_24 + 12 X_3_24 + 12 X_4_24 <= 12
 2h[29]: 12 X_0_28 + 2 X_1_28 + 12 X_2_28 + 12 X_3_28 + 12 X_4_28 <= 12
 2h[31]: 12 X_0_30 + 2 X_1_30 + 12 X_2_30 + 12 X_3_30 + 12 X_4_30 <= 12
 tmpp_var[0,0]: - 7 X_0_6 - 9 X_0_8 - 11 X_0_10 - 15 X_0_14 - 17 X_0_16
   - 19 X_0_18 - 23 X_0_22 - 25 X_0_24 - 29 X_0_28 - 31 X_0_30 + tmpp_var00
   = 0
 tmpp_var[0,1]: - 7 X_1_6 - 9 X_1_8 - 11 X_1_10 - 15 X_1_14 - 17 X_1_16
   - 19 X_1_18 - 23 X_1_22 - 25 X_1_24 - 29 X_1_28 - 31 X_1_30 + tmpp_var10
   = 0
 tmpp_var[0,2]: - 7 X_2_6 - 9 X_2_8 - 11 X_2_10 - 15 X_2_14 - 17 X_2_16
   - 19 X_2_18 - 23 X_2_22 - 25 X_2_24 - 29 X_2_28 - 31 X_2_30 + tmpp_var20
   = 0
 tmpp_var[0,3]: - 7 X_3_6 - 9 X_3_8 - 11 X_3_10 - 15 X_3_14 - 17 X_3_16
   - 19 X_3_18 - 23 X_3_22 - 25 X_3_24 - 29 X_3_28 - 31 X_3_30 + tmpp_var30
   = 0
 tmpp_var[0,4]: - 7 X_4_6 - 9 X_4_8 - 11 X_4_10 - 15 X_4_14 - 17 X_4_16
   - 19 X_4_18 - 23 X_4_22 - 25 X_4_24 - 29 X_4_28 - 31 X_4_30 + tmpp_var40
   = 0
 2l[0,0,0,1,0]: 6 theta_0_0_0 - 6 theta_1_0_1 - ZP_0_0_0_0_1 + ZN_0_0_0_0_1
   = 0
 2l[0,0,1,0,0]: 6 theta_0_0_1 - 6 theta_1_0_0 - ZP_0_0_0_1_0 + ZN_0_0_0_1_0
   = 0
 2l[0,0,1,2,0]: 6 theta_0_0_1 - 6 theta_1_0_2 - ZP_0_0_0_1_2 + ZN_0_0_0_1_2
   = 0
 2l[0,0,2,1,0]: 6 theta_0_0_2 - 6 theta_1_0_1 - ZP_0_0_0_2_1 + ZN_0_0_0_2_1
   = 0
 2l[0,0,2,3,0]: 6 theta_0_0_2 - 6 theta_1_0_3 - ZP_0_0_0_2_3 + ZN_0_0_0_2_3
   = 0
 2l[0,0,3,2,0]: 6 theta_0_0_3 - 6 theta_1_0_2 - ZP_0_0_0_3_2 + ZN_0_0_0_3_2
   = 0
 2l[0,1,0,1,0]: 6 theta_0_0_0 - 6 theta_0_0_1 - ZP_0_1_0_0_1 + ZN_0_1_0_0_1
   = 0
 2l[0,1,1,0,0]: - 6 theta_0_0_0 + 6 theta_0_0_1 - ZP_0_1_0_1_0
   + ZN_0_1_0_1_0 = 0
 2l[0,1,1,2,0]: 6 theta_0_0_1 - 6 theta_0_0_2 - ZP_0_1_0_1_2 + ZN_0_1_0_1_2
   = 0
 2l[0,1,2,1,0]: - 6 theta_0_0_1 + 6 theta_0_0_2 - ZP_0_1_0_2_1
   + ZN_0_1_0_2_1 = 0
 2l[0,1,2,3,0]: 6 theta_0_0_2 - 6 theta_0_0_3 - ZP_0_1_0_2_3 + ZN_0_1_0_2_3
   = 0
 2l[0,1,3,2,0]: - 6 theta_0_0_2 + 6 theta_0_0_3 - ZP_0_1_0_3_2
   + ZN_0_1_0_3_2 = 0
 2l[1,0,0,1,0]: 6 theta_1_0_0 - 6 theta_1_0_1 - ZP_1_0_0_0_1 + ZN_1_0_0_0_1
   = 0
 2l[1,0,1,0,0]: - 6 theta_1_0_0 + 6 theta_1_0_1 - ZP_1_0_0_1_0
   + ZN_1_0_0_1_0 = 0
 2l[1,0,1,2,0]: 6 theta_1_0_1 - 6 theta_1_0_2 - ZP_1_0_0_1_2 + ZN_1_0_0_1_2
   = 0
 2l[1,0,2,1,0]: - 6 theta_1_0_1 + 6 theta_1_0_2 - ZP_1_0_0_2_1
   + ZN_1_0_0_2_1 = 0
 2l[1,0,2,3,0]: 6 theta_1_0_2 - 6 theta_1_0_3 - ZP_1_0_0_2_3 + ZN_1_0_0_2_3
   = 0
 2l[1,0,3,2,0]: - 6 theta_1_0_2 + 6 theta_1_0_3 - ZP_1_0_0_3_2
   + ZN_1_0_0_3_2 = 0
 2l[1,1,0,1,0]: - 6 theta_0_0_1 + 6 theta_1_0_0 - ZP_1_1_0_0_1
   + ZN_1_1_0_0_1 = 0
 2l[1,1,1,0,0]: - 6 theta_0_0_0 + 6 theta_1_0_1 - ZP_1_1_0_1_0
   + ZN_1_1_0_1_0 = 0
 2l[1,1,1,2,0]: - 6 theta_0_0_2 + 6 theta_1_0_1 - ZP_1_1_0_1_2
   + ZN_1_1_0_1_2 = 0
 2l[1,1,2,1,0]: - 6 theta_0_0_1 + 6 theta_1_0_2 - ZP_1_1_0_2_1
   + ZN_1_1_0_2_1 = 0
 2l[1,1,2,3,0]: - 6 theta_0_0_3 + 6 theta_1_0_2 - ZP_1_1_0_2_3
   + ZN_1_1_0_2_3 = 0
 2l[1,1,3,2,0]: - 6 theta_0_0_2 + 6 theta_1_0_3 - ZP_1_1_0_3_2
   + ZN_1_1_0_3_2 = 0
 2m[0,0,0,1,0]: Z_0_0_0_0_1 - ZP_0_0_0_0_1 - ZN_0_0_0_0_1 = 0
 2m[0,0,1,0,0]: Z_0_0_0_1_0 - ZP_0_0_0_1_0 - ZN_0_0_0_1_0 = 0
 2m[0,0,1,2,0]: Z_0_0_0_1_2 - ZP_0_0_0_1_2 - ZN_0_0_0_1_2 = 0
 2m[0,0,2,1,0]: Z_0_0_0_2_1 - ZP_0_0_0_2_1 - ZN_0_0_0_2_1 = 0
 2m[0,0,2,3,0]: Z_0_0_0_2_3 - ZP_0_0_0_2_3 - ZN_0_0_0_2_3 = 0
 2m[0,0,3,2,0]: Z_0_0_0_3_2 - ZP_0_0_0_3_2 - ZN_0_0_0_3_2 = 0
 2m[0,1,0,1,0]: Z_0_1_0_0_1 - ZP_0_1_0_0_1 - ZN_0_1_0_0_1 = 0
 2m[0,1,1,0,0]: Z_0_1_0_1_0 - ZP_0_1_0_1_0 - ZN_0_1_0_1_0 = 0
 2m[0,1,1,2,0]: Z_0_1_0_1_2 - ZP_0_1_0_1_2 - ZN_0_1_0_1_2 = 0
 2m[0,1,2,1,0]: Z_0_1_0_2_1 - ZP_0_1_0_2_1 - ZN_0_1_0_2_1 = 0
 2m[0,1,2,3,0]: Z_0_1_0_2_3 - ZP_0_1_0_2_3 - ZN_0_1_0_2_3 = 0
 2m[0,1,3,2,0]: Z_0_1_0_3_2 - ZP_0_1_0_3_2 - ZN_0_1_0_3_2 = 0
 2m[1,0,0,1,0]: Z_1_0_0_0_1 - ZP_1_0_0_0_1 - ZN_1_0_0_0_1 = 0
 2m[1,0,1,0,0]: Z_1_0_0_1_0 - ZP_1_0_0_1_0 - ZN_1_0_0_1_0 = 0
 2m[1,0,1,2,0]: Z_1_0_0_1_2 - ZP_1_0_0_1_2 - ZN_1_0_0_1_2 = 0
 2m[1,0,2,1,0]: Z_1_0_0_2_1 - ZP_1_0_0_2_1 - ZN_1_0_0_2_1 = 0
 2m[1,0,2,3,0]: Z_1_0_0_2_3 - ZP_1_0_0_2_3 - ZN_1_0_0_2_3 = 0
 2m[1,0,3,2,0]: Z_1_0_0_3_2 - ZP_1_0_0_3_2 - ZN_1_0_0_3_2 = 0
 2m[1,1,0,1,0]: Z_1_1_0_0_1 - ZP_1_1_0_0_1 - ZN_1_1_0_0_1 = 0
 2m[1,1,1,0,0]: Z_1_1_0_1_0 - ZP_1_1_0_1_0 - ZN_1_1_0_1_0 = 0
 2m[1,1,1,2,0]: Z_1_1_0_1_2 - ZP_1_1_0_1_2 - ZN_1_1_0_1_2 = 0
 2m[1,1,2,1,0]: Z_1_1_0_2_1 - ZP_1_1_0_2_1 - ZN_1_1_0_2_1 = 0
 2m[1,1,2,3,0]: Z_1_1_0_2_3 - ZP_1_1_0_2_3 - ZN_1_1_0_2_3 = 0
 2m[1,1,3,2,0]: Z_1_1_0_3_2 - ZP_1_1_0_3_2 - ZN_1_1_0_3_2 = 0
 2n[0,0]: - 720 X_0_6 - 120 X_1_6 - 720 X_0_8 - 120 X_1_8 - 720 X_0_10
   - 120 X_1_10 - 720 X_0_14 - 120 X_1_14 - 720 X_0_16 - 120 X_1_16
   - 720 X_0_18 - 120 X_1_18 - 720 X_0_22 - 120 X_1_22 - 720 X_0_24
   - 120 X_1_24 - 720 X_0_28 - 120 X_1_28 - 720 X_0_30 - 120 X_1_30
   + 6 theta_0_0_0 - 6 theta_1_0_0 + eta_0_0 = 0
 2n[0,1]: - 720 X_3_6 - 720 X_3_8 - 720 X_3_10 - 720 X_3_14 - 720 X_3_16
   - 720 X_3_18 - 720 X_3_22 - 720 X_3_24 - 720 X_3_28 - 720 X_3_30
   + 6 theta_0_0_1 - 6 theta_1_0_1 + eta_0_1 = 0
 2n[0,2]: - 720 X_2_6 - 720 X_2_8 - 720 X_2_10 - 720 X_2_14 - 720 X_2_16
   - 720 X_2_18 - 720 X_2_22 - 720 X_2_24 - 720 X_2_28 - 720 X_2_30
   + 6 theta_0_0_2 - 6 theta_1_0_2 + eta_0_2 = 0
 2n[0,3]: - 720 X_4_6 - 720 X_4_8 - 720 X_4_10 - 720 X_4_14 - 720 X_4_16
   - 720 X_4_18 - 720 X_4_22 - 720 X_4_24 - 720 X_4_28 - 720 X_4_30
   + 6 theta_0_0_3 - 6 theta_1_0_3 + eta_0_3 = 0
 global_lb1[0]: - 720 X_0_6 - 120 X_1_6 - 720 X_2_6 - 720 X_3_6 - 720 X_4_6
   - 720 X_0_8 - 120 X_1_8 - 720 X_2_8 - 720 X_3_8 - 720 X_4_8 - 720 X_0_10
   - 120 X_1_10 - 720 X_2_10 - 720 X_3_10 - 720 X_4_10 - 720 X_0_14
   - 120 X_1_14 - 720 X_2_14 - 720 X_3_14 - 720 X_4_14 - 720 X_0_16
   - 120 X_1_16 - 720 X_2_16 - 720 X_3_16 - 720 X_4_16 - 720 X_0_18
   - 120 X_1_18 - 720 X_2_18 - 720 X_3_18 - 720 X_4_18 - 720 X_0_22
   - 120 X_1_22 - 720 X_2_22 - 720 X_3_22 - 720 X_4_22 - 720 X_0_24
   - 120 X_1_24 - 720 X_2_24 - 720 X_3_24 - 720 X_4_24 - 720 X_0_28
   - 120 X_1_28 - 720 X_2_28 - 720 X_3_28 - 720 X_4_28 - 720 X_0_30
   - 120 X_1_30 - 720 X_2_30 - 720 X_3_30 - 720 X_4_30 + 6 theta_0_0_0
   + 6 theta_0_0_1 + 6 theta_0_0_2 + 6 theta_0_0_3 - 6 theta_1_0_0
   - 6 theta_1_0_1 - 6 theta_1_0_2 - 6 theta_1_0_3 + theta - 6 AA0 >= -42
 global_lb2[0]: - 720 X_0_6 - 120 X_1_6 - 720 X_2_6 - 720 X_3_6 - 720 X_4_6
   - 720 X_0_8 - 120 X_1_8 - 720 X_2_8 - 720 X_3_8 - 720 X_4_8 - 720 X_0_10
   - 120 X_1_10 - 720 X_2_10 - 720 X_3_10 - 720 X_4_10 - 720 X_0_14
   - 120 X_1_14 - 720 X_2_14 - 720 X_3_14 - 720 X_4_14 - 720 X_0_16
   - 120 X_1_16 - 720 X_2_16 - 720 X_3_16 - 720 X_4_16 - 720 X_0_18
   - 120 X_1_18 - 720 X_2_18 - 720 X_3_18 - 720 X_4_18 - 720 X_0_22
   - 120 X_1_22 - 720 X_2_22 - 720 X_3_22 - 720 X_4_22 - 720 X_0_24
   - 120 X_1_24 - 720 X_2_24 - 720 X_3_24 - 720 X_4_24 - 720 X_0_28
   - 120 X_1_28 - 720 X_2_28 - 720 X_3_28 - 720 X_4_28 - 720 X_0_30
   - 120 X_1_30 - 720 X_2_30 - 720 X_3_30 - 720 X_4_30 + theta - 6 BB0
   >= -42
 global_lb3[0]: - 720 X_0_6 - 120 X_1_6 - 720 X_2_6 - 720 X_3_6 - 720 X_4_6
   - 720 X_0_8 - 120 X_1_8 - 720 X_2_8 - 720 X_3_8 - 720 X_4_8 - 720 X_0_10
   - 120 X_1_10 - 720 X_2_10 - 720 X_3_10 - 720 X_4_10 - 720 X_0_14
   - 120 X_1_14 - 720 X_2_14 - 720 X_3_14 - 720 X_4_14 - 720 X_0_16
   - 120 X_1_16 - 720 X_2_16 - 720 X_3_16 - 720 X_4_16 - 720 X_0_18
   - 120 X_1_18 - 720 X_2_18 - 720 X_3_18 - 720 X_4_18 - 720 X_0_22
   - 120 X_1_22 - 720 X_2_22 - 720 X_3_22 - 720 X_4_22 - 720 X_0_24
   - 120 X_1_24 - 720 X_2_24 - 720 X_3_24 - 720 X_4_24 - 720 X_0_28
   - 120 X_1_28 - 720 X_2_28 - 720 X_3_28 - 720 X_4_28 - 720 X_0_30
   - 120 X_1_30 - 720 X_2_30 - 720 X_3_30 - 720 X_4_30 + 6 theta_0_0_0
   + 6 theta_0_0_1 + 6 theta_0_0_2 + 6 theta_0_0_3 - 6 theta_1_0_0
   - 6 theta_1_0_1 - 6 theta_1_0_2 - 6 theta_1_0_3 + theta - 6 AA0
   - 6 min_var1_0_0 - 6 min_var1_0_1 - 6 min_var1_0_2 >= -42
Bounds
Binaries
 X_0_6 X_1_6 X_2_6 X_3_6 X_4_6 X_5_6 X_6_6 X_0_8 X_1_8 X_2_8 X_3_8 X_4_8
 X_5_8 X_6_8 X_0_10 X_1_10 X_2_10 X_3_10 X_4_10 X_5_10 X_6_10 X_0_14 X_1_14
 X_2_14 X_3_14 X_4_14 X_5_14 X_6_14 X_0_16 X_1_16 X_2_16 X_3_16 X_4_16
 X_5_16 X_6_16 X_0_18 X_1_18 X_2_18 X_3_18 X_4_18 X_5_18 X_6_18 X_0_22
 X_1_22 X_2_22 X_3_22 X_4_22 X_5_22 X_6_22 X_0_24 X_1_24 X_2_24 X_3_24
 X_4_24 X_5_24 X_6_24 X_0_28 X_1_28 X_2_28 X_3_28 X_4_28 X_5_28 X_6_28
 X_0_30 X_1_30 X_2_30 X_3_30 X_4_30 X_5_30 X_6_30
General Constraints
 2i[0,0]: theta_0_0_0 = MIN ( tmpp_var00 , tmpp_var10 )
 2i[0,1]: theta_0_0_1 = MIN ( tmpp_var30 )
 2i[0,2]: theta_0_0_2 = MIN ( tmpp_var20 )
 2i[0,3]: theta_0_0_3 = MIN ( tmpp_var40 )
 2k[0,0]: theta_1_0_0 = MAX ( tmpp_var00 , tmpp_var10 )
 2k[0,1]: theta_1_0_1 = MAX ( tmpp_var30 )
 2k[0,2]: theta_1_0_2 = MAX ( tmpp_var20 )
 2k[0,3]: theta_1_0_3 = MAX ( tmpp_var40 )
 BB[0]: AA0 = MIN ( theta_1_0_0 , theta_1_0_1 , theta_1_0_2 , theta_1_0_3 )
 BB[0]: BB0 = MAX ( theta_1_0_0 , theta_1_0_1 , theta_1_0_2 , theta_1_0_3 )
 tmp[0,0]: min_var1_0_0 = MIN ( Z_0_0_0_0_1 , Z_0_1_0_0_1 , Z_1_0_0_0_1 ,
   Z_1_1_0_0_1 )
 tmp[0,1]: min_var1_0_1 = MIN ( Z_0_0_0_1_2 , Z_0_1_0_1_2 , Z_1_0_0_1_2 ,
   Z_1_1_0_1_2 )
 tmp[0,2]: min_var1_0_2 = MIN ( Z_0_0_0_2_3 , Z_0_1_0_2_3 , Z_1_0_0_2_3 ,
   Z_1_1_0_2_3 )
End
